80 8
76 86
45 55
99 100
24 34
28 38
79 89
71 81
40 50
97 100
12 22
3 13
97 100
41 51
72 82
22 32
71 81
43 53
51 61
74 84
62 72
71 81
43 53
12 22
82 92
70 80
17 27
54 64
26 36
80 90
80 90
52 62
75 85
46 56
16 26
68 78
87 97
50 60
42 52
79 89
30 40
43 53
8 18
64 74
11 21
30 40
85 95
65 75
11 21
15 25
62 72
57 67
96 100
3 13
95 100
5 15
92 100
97 100
78 88
6 16
72 82
65 75
34 44
98 100
99 100
73 83
72 82
10 20
4 14
72 82
35 45
68 78
43 53
28 38
71 81
32 42
50 60
71 81
14 24
28 38
45 55
459 541
653 800
430 516
625 751
458 569
463 526
459 549
539 615
